32	0

0	2	2	3
10	2	4	5
4	2	4	5
5	2	6	7
5	2	6	7
8	1	8
7	1	8
4	1	9
5	2	10	11
4	2	12	13
10	2	12	13
4	2	14	15
6	2	14	15
3	1	16
2	1	16
7	2	17	18
7	1	19
6	1	19
3	1	20
5	2	21	22
3	1	23
1	1	23
1	1	24
1	2	25	26
7	2	27	28
6	2	27	28
2	1	29
5	1	29
8	1	30
2	1	31
2	1	32
0	0
